objective value:                     35.9863624170332
t_B0,0                                              1 	(obj:0.48540052888779)
t_B1,0                                              1 	(obj:0.48540052888779)
t_B2,0                                              1 	(obj:0.48540052888779)
t_B3,0                                              1 	(obj:0.48540052888779)
t_B5,0                                              1 	(obj:0.48540052888779)
t_B6,0                                              1 	(obj:0.48540052888779)
t_B7,0                                              1 	(obj:0.48540052888779)
t_B8,0                                              1 	(obj:0.48540052888779)
t_B9,0                                              1 	(obj:0.48540052888779)
t_B10,0                                             1 	(obj:0.48540052888779)
t_B11,0                                             1 	(obj:0.48540052888779)
t_B13,0                                             1 	(obj:0.48540052888779)
t_B14,0                                             1 	(obj:0.48540052888779)
t_B15,0                                             1 	(obj:0.48540052888779)
t_B16,0                                             1 	(obj:0.48540052888779)
t_B17,0                                             1 	(obj:0.48540052888779)
t_B18,0                                             1 	(obj:0.48540052888779)
t_B19,0                                             1 	(obj:0.48540052888779)
t_B21,0                                             1 	(obj:0.48540052888779)
t_B23,0                                             1 	(obj:0.48540052888779)
t_B24,0                                             1 	(obj:0.48540052888779)
t_B25,0                                             1 	(obj:0.48540052888779)
t_B26,0                                             1 	(obj:0.48540052888779)
t_B27,0                                             1 	(obj:0.48540052888779)
t_B30,0                                             1 	(obj:0.48540052888779)
t_B34,0                                             1 	(obj:0.48540052888779)
t_B40,0                                             1 	(obj:0.48540052888779)
t_B41,0                                             1 	(obj:0.48540052888779)
t_B46,0                                             1 	(obj:0.48540052888779)
t_B49,0                                             1 	(obj:0.48540052888779)
t_B51,0                                             1 	(obj:0.48540052888779)
t_B0,2                                              1 	(obj:0.264812615668967)
t_B0,1                                              1 	(obj:0.249786855443244)
t_B1,2                                              1 	(obj:0.264812615668967)
t_B1,1                                              1 	(obj:0.249786855443244)
t_B2,2                                              1 	(obj:0.264812615668967)
t_B2,1                                              1 	(obj:0.249786855443244)
t_B3,2                                              1 	(obj:0.264812615668967)
t_B3,1                                              1 	(obj:0.249786855443244)
t_B4,2                                              1 	(obj:0.264812615668967)
t_B5,2                                              1 	(obj:0.264812615668967)
t_B5,1                                              1 	(obj:0.249786855443244)
t_B6,2                                              1 	(obj:0.264812615668967)
t_B6,1                                              1 	(obj:0.249786855443244)
t_B7,2                                              1 	(obj:0.264812615668967)
t_B7,1                                              1 	(obj:0.249786855443244)
t_B8,2                                              1 	(obj:0.264812615668967)
t_B8,1                                              1 	(obj:0.249786855443244)
t_B9,2                                              1 	(obj:0.264812615668967)
t_B9,1                                              1 	(obj:0.249786855443244)
t_B10,2                                             1 	(obj:0.264812615668967)
t_B10,1                                             1 	(obj:0.249786855443244)
t_B11,2                                             1 	(obj:0.264812615668967)
t_B11,1                                             1 	(obj:0.249786855443244)
t_B12,2                                             1 	(obj:0.264812615668967)
t_B13,2                                             1 	(obj:0.264812615668967)
t_B13,1                                             1 	(obj:0.249786855443244)
t_B14,2                                             1 	(obj:0.264812615668967)
t_B14,1                                             1 	(obj:0.249786855443244)
t_B15,2                                             1 	(obj:0.264812615668967)
t_B15,1                                             1 	(obj:0.249786855443244)
t_B16,2                                             1 	(obj:0.264812615668967)
t_B16,1                                             1 	(obj:0.249786855443244)
t_B17,2                                             1 	(obj:0.264812615668967)
t_B17,1                                             1 	(obj:0.249786855443244)
t_B18,2                                             1 	(obj:0.264812615668967)
t_B18,1                                             1 	(obj:0.249786855443244)
t_B19,2                                             1 	(obj:0.264812615668967)
t_B19,1                                             1 	(obj:0.249786855443244)
t_B20,2                                             1 	(obj:0.264812615668967)
t_B20,1                                             1 	(obj:0.249786855443244)
t_B21,2                                             1 	(obj:0.264812615668967)
t_B21,1                                             1 	(obj:0.249786855443244)
t_B22,2                                             1 	(obj:0.264812615668967)
t_B23,2                                             1 	(obj:0.264812615668967)
t_B23,1                                             1 	(obj:0.249786855443244)
t_B24,2                                             1 	(obj:0.264812615668967)
t_B24,1                                             1 	(obj:0.249786855443244)
t_B25,2                                             1 	(obj:0.264812615668967)
t_B25,1                                             1 	(obj:0.249786855443244)
t_B26,2                                             1 	(obj:0.264812615668967)
t_B26,1                                             1 	(obj:0.249786855443244)
t_B27,2                                             1 	(obj:0.264812615668967)
t_B27,1                                             1 	(obj:0.249786855443244)
t_B28,2                                             1 	(obj:0.264812615668967)
t_B30,2                                             1 	(obj:0.264812615668967)
t_B30,1                                             1 	(obj:0.249786855443244)
t_B33,2                                             1 	(obj:0.264812615668967)
t_B34,2                                             1 	(obj:0.264812615668967)
t_B34,1                                             1 	(obj:0.249786855443244)
t_B35,2                                             1 	(obj:0.264812615668967)
t_B37,2                                             1 	(obj:0.264812615668967)
t_B39,2                                             1 	(obj:0.264812615668967)
t_B40,2                                             1 	(obj:0.264812615668967)
t_B40,1                                             1 	(obj:0.249786855443244)
t_B41,2                                             1 	(obj:0.264812615668967)
t_B41,1                                             1 	(obj:0.249786855443244)
t_B42,2                                             1 	(obj:0.264812615668967)
t_B42,1                                             1 	(obj:0.249786855443244)
t_B46,2                                             1 	(obj:0.264812615668967)
t_B46,1                                             1 	(obj:0.249786855443244)
t_B48,2                                             1 	(obj:0.264812615668967)
t_B49,2                                             1 	(obj:0.264812615668967)
t_B49,1                                             1 	(obj:0.249786855443244)
t_B50,2                                             1 	(obj:0.264812615668967)
t_B51,2                                             1 	(obj:0.264812615668967)
t_B51,1                                             1 	(obj:0.249786855443244)
t_B52,2                                             1 	(obj:0.264812615668967)
t_B54,2                                             1 	(obj:0.264812615668967)
t_B59,2                                             1 	(obj:0.264812615668967)
t_B62,2                                             1 	(obj:0.264812615668967)
t_B62,1                                             1 	(obj:0.249786855443244)
t_id266241                                          1 	(obj:0)
t_X0,0,0                                            1 	(obj:0)
t_X56,0,0                                           1 	(obj:0)
t_X1,1,0                                            1 	(obj:0)
t_X57,1,0                                           1 	(obj:0)
t_X2,2,0                                            1 	(obj:0)
t_X58,2,0                                           1 	(obj:0)
t_X3,3,0                                            1 	(obj:0)
t_X4,3,0                                            1 	(obj:0)
t_X59,3,0                                           1 	(obj:0)
t_X5,5,0                                            1 	(obj:0)
t_X60,5,0                                           1 	(obj:0)
t_X61,5,0                                           1 	(obj:0)
t_X6,6,0                                            1 	(obj:0)
t_X62,6,0                                           1 	(obj:0)
t_X7,7,0                                            1 	(obj:0)
t_X63,7,0                                           1 	(obj:0)
t_X8,8,0                                            1 	(obj:0)
t_X9,9,0                                            1 	(obj:0)
t_X10,10,0                                          1 	(obj:0)
t_X11,11,0                                          1 	(obj:0)
t_X12,11,0                                          1 	(obj:0)
t_X13,13,0                                          1 	(obj:0)
t_X14,14,0                                          1 	(obj:0)
t_X22,14,0                                          1 	(obj:0)
t_X15,15,0                                          1 	(obj:0)
t_X16,16,0                                          1 	(obj:0)
t_X17,17,0                                          1 	(obj:0)
t_X18,18,0                                          1 	(obj:0)
t_X19,19,0                                          1 	(obj:0)
t_X20,19,0                                          1 	(obj:0)
t_X21,21,0                                          1 	(obj:0)
t_X29,21,0                                          1 	(obj:0)
t_X23,23,0                                          1 	(obj:0)
t_X31,23,0                                          1 	(obj:0)
t_X24,24,0                                          1 	(obj:0)
t_X32,24,0                                          1 	(obj:0)
t_X39,24,0                                          1 	(obj:0)
t_X25,25,0                                          1 	(obj:0)
t_X33,25,0                                          1 	(obj:0)
t_X26,26,0                                          1 	(obj:0)
t_X30,30,0                                          1 	(obj:0)
t_X37,30,0                                          1 	(obj:0)
t_X38,30,0                                          1 	(obj:0)
t_X40,40,0                                          1 	(obj:0)
t_X47,40,0                                          1 	(obj:0)
t_X48,40,0                                          1 	(obj:0)
t_X55,40,0                                          1 	(obj:0)
t_X41,41,0                                          1 	(obj:0)
t_X45,46,0                                          1 	(obj:0)
t_X46,46,0                                          1 	(obj:0)
t_X53,46,0                                          1 	(obj:0)
t_X54,46,0                                          1 	(obj:0)
t_X49,49,0                                          1 	(obj:0)
t_X50,49,0                                          1 	(obj:0)
t_X43,51,0                                          1 	(obj:0)
t_X44,51,0                                          1 	(obj:0)
t_X51,51,0                                          1 	(obj:0)
t_X52,51,0                                          1 	(obj:0)
t_X27,27,0                                          1 	(obj:0)
t_X28,27,0                                          1 	(obj:0)
t_X35,27,0                                          1 	(obj:0)
t_X36,27,0                                          1 	(obj:0)
t_X34,34,0                                          1 	(obj:0)
t_X42,34,0                                          1 	(obj:0)
t_X0,0,1                                            1 	(obj:0)
t_X56,0,1                                           1 	(obj:0)
t_X1,1,1                                            1 	(obj:0)
t_X57,1,1                                           1 	(obj:0)
t_X2,2,1                                            1 	(obj:0)
t_X58,2,1                                           1 	(obj:0)
t_X3,3,1                                            1 	(obj:0)
t_X4,3,1                                            1 	(obj:0)
t_X59,3,1                                           1 	(obj:0)
t_X5,5,1                                            1 	(obj:0)
t_X60,5,1                                           1 	(obj:0)
t_X61,5,1                                           1 	(obj:0)
t_X6,6,1                                            1 	(obj:0)
t_X7,7,1                                            1 	(obj:0)
t_X63,7,1                                           1 	(obj:0)
t_X8,8,1                                            1 	(obj:0)
t_X9,9,1                                            1 	(obj:0)
t_X10,10,1                                          1 	(obj:0)
t_X11,11,1                                          1 	(obj:0)
t_X12,11,1                                          1 	(obj:0)
t_X13,13,1                                          1 	(obj:0)
t_X14,14,1                                          1 	(obj:0)
t_X22,14,1                                          1 	(obj:0)
t_X15,15,1                                          1 	(obj:0)
t_X16,16,1                                          1 	(obj:0)
t_X17,17,1                                          1 	(obj:0)
t_X18,18,1                                          1 	(obj:0)
t_X19,19,1                                          1 	(obj:0)
t_X21,21,1                                          1 	(obj:0)
t_X29,21,1                                          1 	(obj:0)
t_X23,23,1                                          1 	(obj:0)
t_X31,23,1                                          1 	(obj:0)
t_X24,24,1                                          1 	(obj:0)
t_X32,24,1                                          1 	(obj:0)
t_X39,24,1                                          1 	(obj:0)
t_X25,25,1                                          1 	(obj:0)
t_X33,25,1                                          1 	(obj:0)
t_X26,26,1                                          1 	(obj:0)
t_X30,30,1                                          1 	(obj:0)
t_X37,30,1                                          1 	(obj:0)
t_X38,30,1                                          1 	(obj:0)
t_X40,40,1                                          1 	(obj:0)
t_X47,40,1                                          1 	(obj:0)
t_X48,40,1                                          1 	(obj:0)
t_X55,40,1                                          1 	(obj:0)
t_X41,41,1                                          1 	(obj:0)
t_X42,42,1                                          1 	(obj:0)
t_X43,42,1                                          1 	(obj:0)
t_X50,42,1                                          1 	(obj:0)
t_X45,46,1                                          1 	(obj:0)
t_X46,46,1                                          1 	(obj:0)
t_X53,46,1                                          1 	(obj:0)
t_X54,46,1                                          1 	(obj:0)
t_X49,49,1                                          1 	(obj:0)
t_X44,51,1                                          1 	(obj:0)
t_X51,51,1                                          1 	(obj:0)
t_X52,51,1                                          1 	(obj:0)
t_X62,62,1                                          1 	(obj:0)
t_X20,20,1                                          1 	(obj:0)
t_X28,20,1                                          1 	(obj:0)
t_X27,27,1                                          1 	(obj:0)
t_X35,27,1                                          1 	(obj:0)
t_X36,27,1                                          1 	(obj:0)
t_X34,34,1                                          1 	(obj:0)
t_X0,0,2                                            1 	(obj:0)
t_X1,1,2                                            1 	(obj:0)
t_X57,1,2                                           1 	(obj:0)
t_X2,2,2                                            1 	(obj:0)
t_X58,2,2                                           1 	(obj:0)
t_X6,6,2                                            1 	(obj:0)
t_X7,7,2                                            1 	(obj:0)
t_X63,7,2                                           1 	(obj:0)
t_X8,8,2                                            1 	(obj:0)
t_X9,9,2                                            1 	(obj:0)
t_X10,10,2                                          1 	(obj:0)
t_X14,14,2                                          1 	(obj:0)
t_X15,15,2                                          1 	(obj:0)
t_X16,16,2                                          1 	(obj:0)
t_X17,17,2                                          1 	(obj:0)
t_X18,18,2                                          1 	(obj:0)
t_X22,22,2                                          1 	(obj:0)
t_X23,23,2                                          1 	(obj:0)
t_X31,23,2                                          1 	(obj:0)
t_X48,48,2                                          1 	(obj:0)
t_X55,48,2                                          1 	(obj:0)
t_X56,48,2                                          1 	(obj:0)
t_X49,49,2                                          1 	(obj:0)
t_X50,50,2                                          1 	(obj:0)
t_X54,54,2                                          1 	(obj:0)
t_X62,62,2                                          1 	(obj:0)
t_X3,3,2                                            1 	(obj:0)
t_X11,11,2                                          1 	(obj:0)
t_X19,19,2                                          1 	(obj:0)
t_X51,51,2                                          1 	(obj:0)
t_X59,59,2                                          1 	(obj:0)
t_X4,4,2                                            1 	(obj:0)
t_X60,4,2                                           1 	(obj:0)
t_X12,12,2                                          1 	(obj:0)
t_X20,20,2                                          1 	(obj:0)
t_X44,52,2                                          1 	(obj:0)
t_X52,52,2                                          1 	(obj:0)
t_X53,52,2                                          1 	(obj:0)
t_X5,5,2                                            1 	(obj:0)
t_X61,5,2                                           1 	(obj:0)
t_X13,13,2                                          1 	(obj:0)
t_X21,21,2                                          1 	(obj:0)
t_X29,21,2                                          1 	(obj:0)
t_X24,24,2                                          1 	(obj:0)
t_X32,24,2                                          1 	(obj:0)
t_X25,25,2                                          1 	(obj:0)
t_X26,26,2                                          1 	(obj:0)
t_X30,30,2                                          1 	(obj:0)
t_X38,30,2                                          1 	(obj:0)
t_X27,27,2                                          1 	(obj:0)
t_X28,28,2                                          1 	(obj:0)
t_X36,28,2                                          1 	(obj:0)
t_X33,33,2                                          1 	(obj:0)
t_X34,34,2                                          1 	(obj:0)
t_X39,39,2                                          1 	(obj:0)
t_X47,39,2                                          1 	(obj:0)
t_X35,35,2                                          1 	(obj:0)
t_X43,35,2                                          1 	(obj:0)
t_X37,37,2                                          1 	(obj:0)
t_X45,37,2                                          1 	(obj:0)
t_X40,40,2                                          1 	(obj:0)
t_X41,41,2                                          1 	(obj:0)
t_X42,42,2                                          1 	(obj:0)
t_X46,46,2                                          1 	(obj:0)
